(set-logic HORN)
(declare-fun state (Int Int (Array Int Int) Int Int Int Int Bool Bool Bool Bool Bool Bool Bool Int Int Int Int Int Int Int) Bool)
(assert (forall ((|.y.10| Int) (|.y.11| Int) (|H_3| (Array Int Int)) (|K_3| Int) (|G_3| Int) (|F_3| Int) (|A_4| Int) (|.loc.12| Bool) (|.loc.13| Bool) (|K_0| Bool) (|P_0| Bool) (|O_0| Bool) (|M_0| Bool) (|C_0| Bool) (|N_0| Int) (|J_0| Int) (|Q_0| Int) (|I_0| Int) (|H_0| Int) (|G_0| Int) (|I_3| Int) (|.loc.21| Bool) (|.y.19| Int) (|.y.16| (Array Int Int)) (|.y.17| Int) (|.y.18| Int) (|.y.20| Int) (|.loc.22| Bool) (|.y.14| Int) (|.y.15| Int) (|.xtv.1| Bool) (|.xtv.2| Bool) (|.xtv.3| Bool) (|.xtv.4| Bool) (|.xtv.5| Bool) (|.xtv.6| Int) (|.xtv.7| Int) (|.xtv.8| Int) (|.xtv.9| Int) (|.xtv.10| Int) (|.xtv.11| Int) (|.xtv.12| Int)) (=> (and (not .loc.12) (not .loc.13)) (state |.y.10| |.y.11| |H_3| |K_3| |G_3| |F_3| |A_4| |.loc.12| |.loc.13| |K_0| |P_0| |O_0| |M_0| |C_0| |N_0| |J_0| |Q_0| |I_0| |H_0| |G_0| |I_3|))))
(assert (forall ((|.y.10| Int) (|.y.11| Int) (|H_3| (Array Int Int)) (|K_3| Int) (|G_3| Int) (|F_3| Int) (|A_4| Int) (|.loc.12| Bool) (|.loc.13| Bool) (|K_0| Bool) (|P_0| Bool) (|O_0| Bool) (|M_0| Bool) (|C_0| Bool) (|N_0| Int) (|J_0| Int) (|Q_0| Int) (|I_0| Int) (|H_0| Int) (|G_0| Int) (|I_3| Int) (|.loc.21| Bool) (|.y.19| Int) (|.y.16| (Array Int Int)) (|.y.17| Int) (|.y.18| Int) (|.y.20| Int) (|.loc.22| Bool) (|.y.14| Int) (|.y.15| Int) (|.xtv.1| Bool) (|.xtv.2| Bool) (|.xtv.3| Bool) (|.xtv.4| Bool) (|.xtv.5| Bool) (|.xtv.6| Int) (|.xtv.7| Int) (|.xtv.8| Int) (|.xtv.9| Int) (|.xtv.10| Int) (|.xtv.11| Int) (|.xtv.12| Int)) (=> (and (state |.y.10| |.y.11| |H_3| |K_3| |G_3| |F_3| |A_4| |.loc.12| |.loc.13| |K_0| |P_0| |O_0| |M_0| |C_0| |N_0| |J_0| |Q_0| |I_0| |H_0| |G_0| |I_3|) (let ((.def_31 (not .loc.12))) (let ((.def_32 (not .loc.13))) (let ((.def_35 (<= K_3 (select H_3 I_3)))) (let ((.def_51 (<= G_3 0))) (let ((.def_52 (not .def_51))) (let ((.def_53 (and (= (+ G_3 (+ F_3 (* (- 1) I_3))) 0) .def_52))) (let ((.def_57 (or .def_51 (not (<= I_3 0))))) (let ((.def_66 (not .loc.21))) (let ((.def_75 (<= (to_int (* (/ 1 16777216) (to_real (* (- 1) (* (- 16777216) A_4))))) .y.10))) (let ((.def_78 (= H_3 .y.16))) (let ((.def_81 (= K_3 .y.17))) (let ((.def_84 (= G_3 .y.18))) (let ((.def_87 (= A_4 .y.20))) (let ((.def_119 (not .loc.22))) (let ((.def_130 (not M_0))) (let ((.def_135 (not O_0))) (let ((.def_143 (not P_0))) (let ((.def_144 (or .def_135 .def_143))) (or (or (and (or (or (and (and .def_31 (and .loc.13 (and (not .def_35) (and (and (not (<= (to_int (* (/ 1 16777216) (to_real (* 16777216 A_4)))) F_3)) .def_53) .def_57)))) .loc.21) (and (and (and (and (and (and (= .y.19 0) (and .def_32 (and .loc.12 .def_66))) .def_75) .def_78) .def_81) .def_84) .def_87)) (and (not (<= (to_int (* (/ 1 16777216) (to_real (* (- 1) (* (- 16777216) A_4))))) F_3)) (and (= (+ F_3 (* (- 1) .y.19)) (- 1)) (and .def_87 (and .def_84 (and .def_81 (and .def_78 (and .def_66 (and .def_31 (and .loc.13 (and .def_35 (and .def_53 .def_57)))))))))))) .loc.22) (and (= .y.10 .y.19) (and (not (<= .y.18 0)) (and (not (<= .y.20 0)) (and (= .y.17 0) (and (= .y.14 0) (and (and .def_32 (and .def_31 .loc.21)) .def_119))))))) (and (= F_3 .y.19) (and (or (not (<= I_0 0)) (or .def_51 .def_130)) (and (or (not (<= G_0 0)) (or .def_51 .def_135)) (and (or (not C_0) (or .def_135 (not .def_75))) (and (or (= K_3 Q_0) .def_144) (and (or .def_130 (= N_0 .y.17)) (and (or .def_130 (= (+ .y.10 (+ G_3 (* (- 1) I_0))) 0)) (and (or .def_52 .def_130) (and (or .def_135 (= K_0 (not (<= K_3 H_0)))) (and (or .def_135 (= F_3 I_3)) (and (or .def_135 (= (+ .y.10 (+ G_3 (* (- 1) G_0))) 0)) (and (or .def_52 .def_135) (and (= (+ .y.10 (* (- 1) .y.14)) (- 1)) (and (or .def_135 (= .y.16 (store H_3 G_0 H_0))) (and (or .def_130 (= J_0 (select .y.16 I_0))) (and (or .def_144 (= Q_0 .y.17)) (and .def_119 (and .def_87 (and .def_84 (and .def_32 (and .loc.21 (and .loc.12 (and (or M_0 (and P_0 O_0)) (and (or .def_130 (= N_0 J_0)) (and (or O_0 .def_143) (and (or .def_135 (and O_0 C_0)) (and (or .def_130 (and O_0 M_0)) (and (or K_0 (or .def_130 .def_135)) (or .def_144 (not K_0)))))))))))))))))))))))))))))))))))))))))))))))))) (state |.y.14| |.y.15| |.y.16| |.y.17| |.y.18| |.y.19| |.y.20| |.loc.21| |.loc.22| |.xtv.1| |.xtv.2| |.xtv.3| |.xtv.4| |.xtv.5| |.xtv.6| |.xtv.7| |.xtv.8| |.xtv.9| |.xtv.10| |.xtv.11| |.xtv.12|))))
(assert (forall ((|.y.10| Int) (|.y.11| Int) (|H_3| (Array Int Int)) (|K_3| Int) (|G_3| Int) (|F_3| Int) (|A_4| Int) (|.loc.12| Bool) (|.loc.13| Bool) (|K_0| Bool) (|P_0| Bool) (|O_0| Bool) (|M_0| Bool) (|C_0| Bool) (|N_0| Int) (|J_0| Int) (|Q_0| Int) (|I_0| Int) (|H_0| Int) (|G_0| Int) (|I_3| Int) (|.loc.21| Bool) (|.y.19| Int) (|.y.16| (Array Int Int)) (|.y.17| Int) (|.y.18| Int) (|.y.20| Int) (|.loc.22| Bool) (|.y.14| Int) (|.y.15| Int) (|.xtv.1| Bool) (|.xtv.2| Bool) (|.xtv.3| Bool) (|.xtv.4| Bool) (|.xtv.5| Bool) (|.xtv.6| Int) (|.xtv.7| Int) (|.xtv.8| Int) (|.xtv.9| Int) (|.xtv.10| Int) (|.xtv.11| Int) (|.xtv.12| Int)) (=> (state |.y.10| |.y.11| |H_3| |K_3| |G_3| |F_3| |A_4| |.loc.12| |.loc.13| |K_0| |P_0| |O_0| |M_0| |C_0| |N_0| |J_0| |Q_0| |I_0| |H_0| |G_0| |I_3|) (not (and .loc.12 .loc.13)))))
(check-sat)
